Grasp exp. instance_n_25_m_10_id_1.lp tipoLifted 0 szPool 5 nIteration 50 alpha 0.4 
Academic license - for non-commercial use only
Read LP format model from file ../input/instancesGenerated/instance_n_25_m_10_id_1.lp
Reading time = 0.00 seconds
: 10 rows, 25 columns, 122 nonzeros
Optimize a model with 10 rows, 25 columns and 122 nonzeros
Variable types: 0 continuous, 25 integer (25 binary)
Coefficient statistics:
  Matrix range     [1e+00, 1e+01]
  Objective range  [1e+00, 1e+01]
  Bounds range     [1e+00, 1e+00]
  RHS range        [2e+01, 4e+01]
Found heuristic solution: objective 77.0000000

Explored 0 nodes (0 simplex iterations) in 0.00 seconds
Thread count was 1 (of 8 available processors)

Solution count 1: 77 
No other solutions better than 0

Solution limit reached
Best objective 7.700000000000e+01, best bound -, gap -
C_1:	 7.00 x_2  = 1.000000 + 1.00 x_4  = 1.000000 + 6.00 x_5  = 0.000000 + 1.00 x_7  = 1.000000 + 3.00 x_9  = 1.000000 + 7.00 x_10  = 0.464903 + 7.00 x_12  = 0.000000 + 1.00 x_15  = 1.000000 + 10.00 x_17  = 0.528138 + 8.00 x_18  = 0.093163 + 8.00 x_25  = 0.839873 <= 29.00
C_2:	 1.00 x_3  = 1.000000 + 1.00 x_6  = 0.000000 + 7.00 x_8  = 0.000000 + 3.00 x_9  = 1.000000 + 8.00 x_10  = 0.464903 + 8.00 x_16  = 0.688537 + 9.00 x_18  = 0.093163 + 6.00 x_19  = 0.326043 + 2.00 x_20  = 1.000000 + 9.00 x_23  = 0.806529 + 3.00 x_24  = 0.000000 + 8.00 x_25  = 0.839873 <= 32.00
C_3:	 9.00 x_1  = 0.055599 + 4.00 x_2  = 1.000000 + 1.00 x_3  = 1.000000 + 1.00 x_8  = 0.000000 + 4.00 x_9  = 1.000000 + 6.00 x_12  = 0.000000 + 3.00 x_14  = 0.000000 + 2.00 x_20  = 1.000000 + 7.00 x_21  = 0.000000 + 1.00 x_22  = 1.000000 + 7.00 x_23  = 0.806529 + 7.00 x_25  = 0.839873 <= 26.00
C_4:	 6.00 x_4  = 1.000000 + 2.00 x_6  = 0.000000 + 2.00 x_7  = 1.000000 + 5.00 x_10  = 0.464903 + 2.00 x_12  = 0.000000 + 4.00 x_17  = 0.528138 + 4.00 x_19  = 0.326043 + 8.00 x_21  = 0.000000 + 9.00 x_23  = 0.806529 <= 21.00
C_5:	 9.00 x_1  = 0.055599 + 5.00 x_2  = 1.000000 + 6.00 x_7  = 1.000000 + 2.00 x_9  = 1.000000 + 8.00 x_10  = 0.464903 + 10.00 x_11  = 1.000000 + 5.00 x_12  = 0.000000 + 6.00 x_13  = 1.000000 + 7.00 x_14  = 0.000000 + 1.00 x_15  = 1.000000 + 6.00 x_18  = 0.093163 + 8.00 x_19  = 0.326043 + 2.00 x_22  = 1.000000 + 2.00 x_23  = 0.806529 + 6.00 x_24  = 0.000000 <= 41.00
C_6:	 2.00 x_2  = 1.000000 + 6.00 x_5  = 0.000000 + 7.00 x_6  = 0.000000 + 6.00 x_7  = 1.000000 + 4.00 x_9  = 1.000000 + 8.00 x_12  = 0.000000 + 9.00 x_17  = 0.528138 + 4.00 x_21  = 0.000000 + 6.00 x_22  = 1.000000 + 2.00 x_23  = 0.806529 <= 27.00
C_7:	 8.00 x_1  = 0.055599 + 5.00 x_3  = 1.000000 + 8.00 x_8  = 0.000000 + 5.00 x_9  = 1.000000 + 7.00 x_10  = 0.464903 + 1.00 x_15  = 1.000000 + 4.00 x_16  = 0.688537 + 10.00 x_17  = 0.528138 + 1.00 x_20  = 1.000000 + 6.00 x_21  = 0.000000 + 5.00 x_22  = 1.000000 + 4.00 x_23  = 0.806529 + 4.00 x_24  = 0.000000 + 6.00 x_25  = 0.839873 <= 37.00
C_8:	 2.00 x_3  = 1.000000 + 10.00 x_5  = 0.000000 + 1.00 x_7  = 1.000000 + 3.00 x_8  = 0.000000 + 10.00 x_9  = 1.000000 + 9.00 x_11  = 1.000000 + 3.00 x_12  = 0.000000 + 8.00 x_13  = 1.000000 + 5.00 x_14  = 0.000000 + 5.00 x_16  = 0.688537 + 1.00 x_17  = 0.528138 + 6.00 x_18  = 0.093163 + 4.00 x_19  = 0.326043 + 1.00 x_20  = 1.000000 + 10.00 x_21  = 0.000000 + 1.00 x_23  = 0.806529 + 4.00 x_25  = 0.839873 <= 41.00
C_9:	 7.00 x_3  = 1.000000 + 3.00 x_5  = 0.000000 + 8.00 x_9  = 1.000000 + 4.00 x_11  = 1.000000 + 2.00 x_15  = 1.000000 + 3.00 x_16  = 0.688537 + 9.00 x_19  = 0.326043 + 10.00 x_21  = 0.000000 + 7.00 x_24  = 0.000000 <= 26.00
C_10:	 5.00 x_1  = 0.055599 + 4.00 x_2  = 1.000000 + 4.00 x_5  = 0.000000 + 4.00 x_6  = 0.000000 + 4.00 x_7  = 1.000000 + 10.00 x_12  = 0.000000 + 10.00 x_13  = 1.000000 + 1.00 x_14  = 0.000000 + 10.00 x_15  = 1.000000 + 2.00 x_16  = 0.688537 + 5.00 x_18  = 0.093163 + 6.00 x_21  = 0.000000 + 7.00 x_25  = 0.839873 <= 36.00
Solution initial: 95.445434 
Number Constraints Used in Cover:10
GRASP Method!
Number cuts repeat: 0
value: 95.445434
Number Constraints Used in Cover:18
GRASP Method!
Number cuts repeat: 0
value: 95.445434
Number Constraints Used in Cover:28
GRASP Method!
Number cuts repeat: 0
value: 95.445434
Number Constraints Used in Cover:37
GRASP Method!
Number cuts repeat: 0
value: 95.445434
Number Constraints Used in Cover:42
GRASP Method!
Number cuts repeat: 0
value: 95.410294
Number Constraints Used in Cover:52
GRASP Method!
Number cuts repeat: 0
value: 95.364687
Number Constraints Used in Cover:68
GRASP Method!
Number cuts repeat: 0
value: 95.364687
Number Constraints Used in Cover:82
GRASP Method!
Number cuts repeat: 0
value: 95.364687
Number Constraints Used in Cover:95
GRASP Method!
Number cuts repeat: 0
value: 95.364687
Number Constraints Used in Cover:102
GRASP Method!
Number cuts repeat: 0
value: 95.155653
Number Constraints Used in Cover:117
GRASP Method!
Number cuts repeat: 0
value: 95.155653
Number Constraints Used in Cover:127
GRASP Method!
Number cuts repeat: 0
value: 95.155653
Number Constraints Used in Cover:132
GRASP Method!
Number cuts repeat: 0
value: 95.155653
Number Constraints Used in Cover:145
GRASP Method!
Number cuts repeat: 0
value: 95.155653
Number Constraints Used in Cover:148
GRASP Method!
Number cuts repeat: 0
value: 95.155653
Number Constraints Used in Cover:158
GRASP Method!
Number cuts repeat: 0
value: 95.017834
Number Constraints Used in Cover:174
GRASP Method!
Number cuts repeat: 0
value: 95.017834
Number Constraints Used in Cover:181
GRASP Method!
Number cuts repeat: 0
value: 95.017834
Number Constraints Used in Cover:194
GRASP Method!
Number cuts repeat: 0
value: 95.017834
Number Constraints Used in Cover:204
GRASP Method!
Number cuts repeat: 0
value: 95.017834
Number Constraints Used in Cover:212
GRASP Method!
Number cuts repeat: 0
value: 95.017834
Number Constraints Used in Cover:218
GRASP Method!
Number cuts repeat: 0
value: 95.017834
Number Constraints Used in Cover:229
GRASP Method!
Number cuts repeat: 0
value: 95.017834
Number Constraints Used in Cover:243
GRASP Method!
Number cuts repeat: 0
value: 95.017834
Number Constraints Used in Cover:252
GRASP Method!
Number cuts repeat: 0
value: 95.017834
Number Constraints Used in Cover:261
GRASP Method!
Number cuts repeat: 0
value: 95.017834
Number Constraints Used in Cover:268
GRASP Method!
Number cuts repeat: 0
value: 95.017834
Number Constraints Used in Cover:271
GRASP Method!
Number cuts repeat: 0
value: 95.017834
Number Constraints Used in Cover:276
GRASP Method!
Number cuts repeat: 0
value: 95.017834
Number Constraints Used in Cover:285
GRASP Method!
Number cuts repeat: 0
value: 95.017834
Number Constraints Used in Cover:289
GRASP Method!
Number cuts repeat: 0
value: 95.017834
Number Constraints Used in Cover:298
GRASP Method!
Number cuts repeat: 0
value: 95.017834
Number Constraints Used in Cover:305
GRASP Method!
Number cuts repeat: 0
value: 95.017834
Number Constraints Used in Cover:312
GRASP Method!
Number cuts repeat: 0
value: 95.017834
Number Constraints Used in Cover:320
GRASP Method!
Number cuts repeat: 0
value: 95.017834
Number Constraints Used in Cover:328
GRASP Method!
Number cuts repeat: 0
value: 95.017834
Number Constraints Used in Cover:339
GRASP Method!
Number cuts repeat: 0
value: 95.017834
Number Constraints Used in Cover:343
GRASP Method!
Number cuts repeat: 0
value: 95.017834
Number Constraints Used in Cover:353
GRASP Method!
Number cuts repeat: 0
value: 95.017834
Number Constraints Used in Cover:365
GRASP Method!
Number cuts repeat: 0
value: 95.017834
Number Constraints Used in Cover:375
GRASP Method!
Number cuts repeat: 0
value: 95.017834
Number Constraints Used in Cover:386
GRASP Method!
Number cuts repeat: 0
value: 95.017834
Number Constraints Used in Cover:394
GRASP Method!
Number cuts repeat: 0
value: 95.017834
Number Constraints Used in Cover:401
GRASP Method!
Number cuts repeat: 0
value: 95.017834
Number Constraints Used in Cover:412
GRASP Method!
Number cuts repeat: 0
value: 95.017834
Number Constraints Used in Cover:422
GRASP Method!
Number cuts repeat: 0
value: 95.017834
Number Constraints Used in Cover:426
GRASP Method!
Number cuts repeat: 0
value: 95.017834
Number Constraints Used in Cover:435
GRASP Method!
Number cuts repeat: 0
value: 95.017834
Number Constraints Used in Cover:449
GRASP Method!
Number cuts repeat: 0
value: 95.017834
Number Constraints Used in Cover:460
GRASP Method!
Number cuts repeat: 0
value: 95.017834
Number Constraints Used in Cover:466
GRASP Method!
Number cuts repeat: 0
value: 95.017834
Number Constraints Used in Cover:479
GRASP Method!
Number cuts repeat: 0
value: 95.017834
Number Constraints Used in Cover:485
GRASP Method!
Number cuts repeat: 0
value: 95.017834
Number Constraints Used in Cover:495
GRASP Method!
Number cuts repeat: 0
value: 95.017834
Number Constraints Used in Cover:504
GRASP Method!
Number cuts repeat: 0
value: 95.017834
Number Constraints Used in Cover:516
GRASP Method!
Number cuts repeat: 0
value: 95.017834
Number Constraints Used in Cover:526
GRASP Method!
Number cuts repeat: 0
value: 95.017834
Number Constraints Used in Cover:536
GRASP Method!
Number cuts repeat: 0
value: 95.017834
Number Constraints Used in Cover:547
GRASP Method!
Number cuts repeat: 0
value: 95.017834
Number Constraints Used in Cover:555
GRASP Method!
Number cuts repeat: 0
value: 95.017834
Number Constraints Used in Cover:557
GRASP Method!
Number cuts repeat: 0
value: 95.017834
Number Constraints Used in Cover:562
GRASP Method!
Number cuts repeat: 0
value: 95.017834
Number Constraints Used in Cover:572
GRASP Method!
Number cuts repeat: 0
value: 95.017834
Number Constraints Used in Cover:579
GRASP Method!
Number cuts repeat: 0
value: 95.017834
Number Constraints Used in Cover:593
GRASP Method!
Number cuts repeat: 0
value: 95.017834
Number Constraints Used in Cover:602
GRASP Method!
Number cuts repeat: 0
value: 95.017834
Number Constraints Used in Cover:607
GRASP Method!
Number cuts repeat: 0
value: 95.017834
Number Constraints Used in Cover:617
GRASP Method!
Number cuts repeat: 0
value: 95.017834
Number Constraints Used in Cover:624
GRASP Method!
Number cuts repeat: 0
value: 95.017834
Number Constraints Used in Cover:626
GRASP Method!
Number cuts repeat: 0
value: 95.017834
Number Constraints Used in Cover:629
GRASP Method!
Number cuts repeat: 0
value: 95.017834
Number Constraints Used in Cover:631
GRASP Method!
Number cuts repeat: 0
value: 95.017834
Number Constraints Used in Cover:635
GRASP Method!
Number cuts repeat: 0
value: 95.017834
Number Constraints Used in Cover:641
GRASP Method!
Number cuts repeat: 0
value: 95.017834
Number Constraints Used in Cover:650
GRASP Method!
Number cuts repeat: 0
value: 95.017834
Number Constraints Used in Cover:655
GRASP Method!
Number cuts repeat: 0
value: 95.017834
Number Constraints Used in Cover:659
GRASP Method!
Number cuts repeat: 0
value: 95.017834
Number Constraints Used in Cover:668
GRASP Method!
Number cuts repeat: 0
value: 95.017834
Number Constraints Used in Cover:669
GRASP Method!
Number cuts repeat: 0
value: 95.017834
Number Constraints Used in Cover:679
GRASP Method!
Number cuts repeat: 0
value: 95.017834
Number Constraints Used in Cover:689
GRASP Method!
Number cuts repeat: 0
value: 95.017834
Number Constraints Used in Cover:696
GRASP Method!
Number cuts repeat: 0
value: 95.017834
Number Constraints Used in Cover:697
GRASP Method!
Number cuts repeat: 0
value: 95.017834
Number Constraints Used in Cover:705
GRASP Method!
Number cuts repeat: 0
value: 95.017834
Number Constraints Used in Cover:707
GRASP Method!
Number cuts repeat: 0
value: 95.017834
Number Constraints Used in Cover:714
GRASP Method!
Number cuts repeat: 0
value: 95.017834
Number Constraints Used in Cover:715
GRASP Method!
Number cuts repeat: 0
value: 95.017834
Number Constraints Used in Cover:720
GRASP Method!
Number cuts repeat: 0
value: 95.017834
Number Constraints Used in Cover:722
GRASP Method!
Number cuts repeat: 0
value: 95.017834
Number Constraints Used in Cover:730
GRASP Method!
Number cuts repeat: 0
value: 95.017834
Number Constraints Used in Cover:732
GRASP Method!
Number cuts repeat: 0
value: 95.017834
Number Constraints Used in Cover:732
GRASP Method!
Number cuts repeat: 0
value: 95.017834
Number Constraints Used in Cover:734
GRASP Method!
Number cuts repeat: 0
value: 95.017834
Number Constraints Used in Cover:737
GRASP Method!
Number cuts repeat: 0
value: 95.017834
Number Constraints Used in Cover:744
GRASP Method!
Number cuts repeat: 0
value: 95.017834
Number Constraints Used in Cover:748
GRASP Method!
Number cuts repeat: 0
value: 95.017834
Number Constraints Used in Cover:749
GRASP Method!
Number cuts repeat: 0
value: 95.017834
Number Constraints Used in Cover:750
GRASP Method!
Number cuts repeat: 0
value: 95.017834
Number Constraints Used in Cover:756
GRASP Method!
Number cuts repeat: 0
value: 95.017834
Number Constraints Used in Cover:759
GRASP Method!
Number cuts repeat: 0
value: 95.017834
Number Constraints Used in Cover:760
GRASP Method!
Number cuts repeat: 0
value: 95.017834
Number Constraints Used in Cover:766
GRASP Method!
Number cuts repeat: 0
value: 95.017834
Number Constraints Used in Cover:768
GRASP Method!
Number cuts repeat: 0
value: 95.017834
Number Constraints Used in Cover:769
GRASP Method!
Number cuts repeat: 0
value: 95.017834
Number Constraints Used in Cover:770
GRASP Method!
Number cuts repeat: 0
value: 95.017834
Number Constraints Used in Cover:774
GRASP Method!
Number cuts repeat: 0
value: 95.017834
Number Constraints Used in Cover:777
GRASP Method!
Number cuts repeat: 0
value: 95.017834
Number Constraints Used in Cover:783
GRASP Method!
Number cuts repeat: 0
value: 95.017834
Number Constraints Used in Cover:785
GRASP Method!
Number cuts repeat: 0
value: 95.017834
Number Constraints Used in Cover:786
GRASP Method!
Number cuts repeat: 0
value: 95.017834
Number Constraints Used in Cover:792
GRASP Method!
Number cuts repeat: 0
value: 95.017834
Number Cuts Final: 784
